
--- Job HR_ref.gms Start 07/23/15 14:27:21 24.4.5 r52258 WEX-VS8 x86 32bit/MS Windows
GAMS 24.4.5   Copyright (C) 1987-2015 GAMS Development. All rights reserved
Licensee: Ignacio E. Grossmann                           G150105/0001AO-GEN
          Carnegie Mellon University, Dept. of Chemical Engineering  DC9476
          License for teaching and research at degree granting institutions
--- Starting continued compilation
--- Workfile was generated under GAMS version WIN244-244
--- HR_ref.gms(56) 3 Mb
--- .max_time_ref.gms(1) 3 Mb
--- HR_ref.gms(77) 3 Mb
--- Starting execution: elapsed 0:00:00.003
--- HR_ref.gms(569) 3 Mb
--- Generating RMIP model prob
--- HR_ref.gms(574) 3 Mb
---   1,291 rows  501 columns  2,586 non-zeroes
---   70 discrete-columns
--- Executing CPLEX: elapsed 0:00:00.018

IBM ILOG CPLEX   24.4.5 r52258 Released May 26, 2015 VS8 x86 32bit/MS Windows 
--- GAMS/Cplex licensed for continuous and discrete problems.
Cplex 12.6.1.0

Reading data...
Starting Cplex...
Space for names approximately 0.03 Mb
Use option 'names no' to turn use of names off
Tried aggregator 1 time.
LP Presolve eliminated 901 rows and 201 columns.
Aggregator did 30 substitutions.
Reduced LP has 360 rows, 270 columns, and 1115 nonzeros.
Presolve time = 0.00 sec. (0.60 ticks)
Initializing dual steep norms . . .

Iteration log . . .
Iteration:     1   Dual objective     =       -227555.000000
Iteration:    73   Dual objective     =        -57021.000000
LP status(1): optimal
Cplex Time: 0.02sec (det. 1.66 ticks)

Optimal solution found.
Objective :      -56757.000000

--- Restarting execution
--- HR_ref.gms(574) 2 Mb
--- Reading solution for model prob
--- Executing after solve: elapsed 0:00:00.107
--- HR_ref.gms(576) 3 Mb
--- Generating MIP model prob
--- HR_ref.gms(578) 3 Mb
---   1,291 rows  501 columns  2,586 non-zeroes
---   70 discrete-columns
--- Executing CPLEX: elapsed 0:00:00.121

IBM ILOG CPLEX   24.4.5 r52258 Released May 26, 2015 VS8 x86 32bit/MS Windows 
--- GAMS/Cplex licensed for continuous and discrete problems.
Cplex 12.6.1.0

Reading data...
Starting Cplex...
Space for names approximately 0.03 Mb
Use option 'names no' to turn use of names off
Tried aggregator 2 times.
MIP Presolve eliminated 901 rows and 201 columns.
MIP Presolve modified 60 coefficients.
Aggregator did 30 substitutions.
Reduced MIP has 360 rows, 270 columns, and 1115 nonzeros.
Reduced MIP has 70 binaries, 0 generals, 0 SOSs, and 0 indicators.
Presolve time = 0.00 sec. (1.49 ticks)
Found incumbent of value 10237.000000 after 0.01 sec. (2.33 ticks)
Probing fixed 35 vars, tightened 95 bounds.
Probing time = 0.00 sec. (0.42 ticks)
Tried aggregator 2 times.
MIP Presolve eliminated 105 rows and 80 columns.
MIP Presolve modified 50 coefficients.
Aggregator did 15 substitutions.
Reduced MIP has 240 rows, 175 columns, and 720 nonzeros.
Reduced MIP has 35 binaries, 0 generals, 0 SOSs, and 0 indicators.
Presolve time = 0.00 sec. (0.84 ticks)
Probing fixed 0 vars, tightened 26 bounds.
Probing time = 0.00 sec. (0.21 ticks)
Tried aggregator 1 time.
Reduced MIP has 240 rows, 175 columns, and 720 nonzeros.
Reduced MIP has 35 binaries, 0 generals, 0 SOSs, and 0 indicators.
Presolve time = 0.00 sec. (0.38 ticks)
Probing time = 0.00 sec. (0.20 ticks)
Cover probing fixed 0 vars, tightened 5 bounds.
Clique table members: 5.
MIP emphasis: balance optimality and feasibility.
MIP search method: dynamic search.
Parallel mode: none, using 1 thread.
Tried aggregator 1 time.
No LP presolve or aggregator reductions.
Presolve time = 0.02 sec. (0.09 ticks)
Initializing dual steep norms . . .

Iteration log . . .
Iteration:     1   Dual objective     =       -217446.600000
Iteration:    62   Dual objective     =        -56757.000000
Perturbation started.
Iteration:   102   Dual objective     =        -56757.000000
Removing perturbation.
Root relaxation solution time = 0.02 sec. (0.73 ticks)

        Nodes                                         Cuts/
   Node  Left     Objective  IInf  Best Integer    Best Bound    ItCnt     Gap

*     0+    0                        10237.0000  -233789.5000              --- 
Found incumbent of value 10237.000000 after 0.05 sec. (5.44 ticks)
      0     0   -55895.2359     9    10237.0000   -55895.2359      127  646.01%
*     0+    0                       -53399.7143   -55895.2359             4.67%
Found incumbent of value -53399.714286 after 0.05 sec. (5.79 ticks)
      0     0   -54910.7143     4   -53399.7143      Cuts: 22      164    2.83%
*     0     0      integral     0   -54910.7143       Cuts: 6      167    0.00%
Found incumbent of value -54910.714286 after 0.05 sec. (7.96 ticks)
      0     0        cutoff         -54910.7143   -54910.7143      167    0.00%
Elapsed time = 0.05 sec. (7.96 ticks, tree = 0.00 MB, solutions = 3)

Implied bound cuts applied:  2
Flow cuts applied:  7
Mixed integer rounding cuts applied:  5
Lift and project cuts applied:  3
Gomory fractional cuts applied:  7

Root node processing (before b&c):
  Real time             =    0.05 sec. (7.99 ticks)
Sequential b&c:
  Real time             =    0.00 sec. (0.00 ticks)
                          ------------
Total (root+branch&cut) =    0.05 sec. (7.99 ticks)
MIP status(101): integer optimal solution
Cplex Time: 0.05sec (det. 7.99 ticks)
Fixing integer variables, and solving final LP...
Tried aggregator 1 time.
LP Presolve eliminated 1246 rows and 442 columns.
Aggregator did 11 substitutions.
Reduced LP has 34 rows, 48 columns, and 102 nonzeros.
Presolve time = 0.00 sec. (0.39 ticks)

Iteration log . . .
Iteration:     1   Dual objective     =       -143428.000000
Fixed MIP status(1): optimal
Cplex Time: 0.00sec (det. 0.88 ticks)

Proven optimal solution.

MIP Solution:       -54910.714286    (167 iterations, 0 nodes)
Final Solve:        -54910.714286    (27 iterations)

Best possible:      -54910.714286
Absolute gap:            0.000000
Relative gap:            0.000000

--- Restarting execution
--- HR_ref.gms(578) 2 Mb
--- Reading solution for model prob
--- Executing after solve: elapsed 0:00:00.244
--- HR_ref.gms(588) 3 Mb
*** Status: Normal completion
--- Job HR_ref.gms Stop 07/23/15 14:27:21 elapsed 0:00:00.250
